63243
0 26 4123
26 32 4053
32 30 4957
30 24 299
24 10 545
10 44 436
44 51 722
51 1 598
1 13 433
13 8 471
8 11 723
11 17 768
17 3 606
3 29 380
29 14 3326
14 38 485
38 45 214
45 35 402
35 15 938
15 9 734
9 21 117
21 28 544
28 20 516
20 22 176
22 16 619
16 47 415
47 18 897
18 48 934
48 25 560
25 54 397
54 27 487
27 5 404
5 2 385
2 42 1096
42 12 790
12 50 644
50 39 1042
39 36 1440
36 19 714
19 49 763
49 4 1396
4 34 323
34 23 296
23 6 1298
6 40 1672
40 31 362
31 43 676
43 7 383
7 37 368
37 52 3910
52 33 396
33 53 401
53 46 491
46 41 3171
41 0 9947
